system		                                  
   5.27
    0.5 0.5 0
    0.5 0 0.5 
    0 0.5 0.5
   Si  
   2
Direct
0 0 0
0.25 0.25 0.25